c "171829.clq"
p edge 100 1344
e 1 17
e 1 18
e 1 19
e 1 20
e 1 21
e 1 22
e 1 23
e 1 24
e 1 25
e 1 26
e 1 28
e 1 29
e 1 30
e 1 31
e 1 34
e 1 35
e 1 38
e 1 44
e 1 48
e 1 49
e 1 51
e 1 52
e 1 57
e 1 59
e 1 62
e 1 66
e 1 82
e 1 86
e 1 88
e 1 94
e 1 100
e 2 17
e 2 18
e 2 19
e 2 20
e 2 22
e 2 23
e 2 24
e 2 25
e 2 26
e 2 27
e 2 28
e 2 29
e 2 33
e 2 34
e 2 35
e 2 36
e 2 39
e 2 40
e 2 41
e 2 43
e 2 45
e 2 48
e 2 50
e 2 55
e 2 56
e 2 57
e 2 59
e 2 63
e 2 71
e 2 72
e 2 73
e 2 75
e 2 78
e 2 84
e 2 86
e 2 89
e 2 91
e 2 95
e 2 96
e 2 99
e 3 17
e 3 18
e 3 19
e 3 22
e 3 23
e 3 25
e 3 53
e 3 54
e 3 55
e 3 57
e 3 58
e 3 76
e 3 77
e 3 81
e 4 17
e 4 18
e 4 20
e 4 21
e 4 25
e 4 26
e 4 27
e 4 29
e 4 33
e 4 37
e 4 41
e 4 46
e 4 58
e 4 60
e 4 65
e 4 69
e 4 73
e 4 80
e 4 82
e 4 83
e 4 90
e 4 96
e 5 17
e 5 18
e 5 19
e 5 20
e 5 21
e 5 23
e 5 24
e 5 25
e 5 26
e 5 28
e 5 31
e 5 34
e 5 41
e 5 42
e 5 54
e 5 56
e 5 60
e 5 61
e 5 65
e 5 70
e 5 79
e 5 84
e 5 97
e 6 17
e 6 18
e 6 19
e 6 21
e 6 22
e 6 23
e 6 25
e 6 26
e 6 27
e 6 28
e 6 32
e 6 38
e 6 46
e 6 50
e 6 54
e 6 55
e 6 59
e 6 66
e 6 73
e 6 79
e 6 93
e 7 17
e 7 18
e 7 19
e 7 20
e 7 21
e 7 22
e 7 23
e 7 24
e 7 28
e 7 29
e 7 32
e 7 39
e 7 45
e 7 50
e 7 60
e 7 63
e 7 66
e 7 78
e 8 17
e 8 18
e 8 19
e 8 20
e 8 21
e 8 24
e 8 28
e 8 33
e 8 36
e 8 39
e 8 41
e 8 47
e 8 48
e 8 51
e 8 52
e 8 56
e 8 57
e 8 58
e 8 59
e 8 65
e 8 71
e 8 75
e 8 77
e 8 80
e 8 83
e 8 84
e 8 87
e 9 17
e 9 18
e 9 19
e 9 20
e 9 21
e 9 22
e 9 23
e 9 24
e 9 25
e 9 26
e 9 27
e 9 28
e 9 30
e 9 31
e 9 32
e 9 36
e 9 37
e 9 45
e 9 46
e 9 48
e 9 49
e 9 62
e 9 67
e 9 85
e 9 89
e 9 98
e 9 100
e 10 17
e 10 18
e 10 19
e 10 20
e 10 21
e 10 22
e 10 23
e 10 24
e 10 25
e 10 27
e 10 28
e 10 29
e 10 30
e 10 33
e 10 35
e 10 36
e 10 37
e 10 38
e 10 43
e 10 44
e 10 47
e 10 49
e 10 51
e 10 54
e 10 55
e 10 56
e 10 61
e 10 62
e 10 67
e 10 68
e 10 75
e 10 79
e 10 84
e 10 85
e 10 90
e 10 100
e 11 17
e 11 20
e 11 21
e 11 24
e 11 25
e 11 26
e 11 27
e 11 28
e 11 34
e 11 35
e 11 39
e 11 40
e 11 44
e 11 50
e 11 52
e 11 59
e 11 60
e 11 62
e 11 65
e 11 70
e 11 81
e 11 99
e 11 100
e 12 17
e 12 18
e 12 19
e 12 20
e 12 22
e 12 23
e 12 26
e 12 29
e 12 30
e 12 31
e 12 33
e 12 34
e 12 35
e 12 38
e 12 46
e 12 51
e 12 57
e 12 61
e 12 67
e 12 70
e 12 72
e 12 73
e 12 84
e 12 100
e 13 17
e 13 18
e 13 19
e 13 20
e 13 21
e 13 22
e 13 24
e 13 26
e 13 31
e 13 36
e 13 39
e 13 40
e 13 44
e 13 46
e 13 50
e 13 52
e 13 53
e 13 57
e 14 17
e 14 18
e 14 19
e 14 21
e 14 22
e 14 23
e 14 24
e 14 27
e 14 29
e 14 30
e 14 34
e 14 39
e 14 53
e 14 60
e 14 62
e 14 67
e 14 74
e 14 79
e 14 84
e 14 92
e 14 95
e 15 17
e 15 18
e 15 19
e 15 20
e 15 22
e 15 25
e 15 27
e 15 30
e 15 31
e 15 32
e 15 38
e 15 41
e 15 46
e 15 49
e 15 50
e 15 51
e 15 53
e 15 58
e 15 63
e 15 67
e 15 69
e 15 76
e 15 79
e 15 80
e 15 83
e 15 85
e 15 93
e 16 17
e 16 18
e 16 19
e 16 20
e 16 21
e 16 34
e 16 35
e 16 36
e 16 43
e 16 49
e 16 57
e 16 68
e 16 76
e 16 79
e 16 84
e 16 86
e 17 18
e 17 19
e 17 20
e 17 21
e 17 22
e 17 23
e 17 24
e 17 27
e 17 28
e 17 29
e 17 30
e 17 31
e 17 32
e 17 33
e 17 34
e 17 35
e 17 36
e 17 37
e 17 38
e 17 39
e 17 41
e 17 42
e 17 43
e 17 44
e 17 47
e 17 48
e 17 51
e 17 53
e 17 54
e 17 57
e 17 58
e 17 60
e 17 61
e 17 64
e 17 65
e 17 69
e 17 71
e 17 72
e 17 73
e 17 87
e 17 91
e 17 97
e 17 98
e 18 19
e 18 20
e 18 21
e 18 22
e 18 23
e 18 24
e 18 25
e 18 26
e 18 28
e 18 29
e 18 30
e 18 31
e 18 32
e 18 33
e 18 34
e 18 36
e 18 38
e 18 40
e 18 41
e 18 42
e 18 43
e 18 44
e 18 45
e 18 47
e 18 50
e 18 52
e 18 54
e 18 60
e 18 61
e 18 63
e 18 64
e 18 68
e 18 74
e 18 75
e 18 76
e 18 83
e 18 85
e 18 93
e 18 94
e 18 95
e 19 20
e 19 21
e 19 22
e 19 23
e 19 24
e 19 25
e 19 26
e 19 27
e 19 28
e 19 29
e 19 30
e 19 31
e 19 32
e 19 33
e 19 34
e 19 36
e 19 38
e 19 40
e 19 42
e 19 45
e 19 47
e 19 48
e 19 49
e 19 50
e 19 51
e 19 52
e 19 56
e 19 57
e 19 58
e 19 59
e 19 60
e 19 63
e 19 64
e 19 67
e 19 68
e 19 71
e 19 72
e 19 73
e 19 76
e 19 80
e 19 81
e 19 84
e 19 91
e 19 94
e 19 96
e 19 98
e 19 100
e 20 21
e 20 22
e 20 23
e 20 24
e 20 25
e 20 26
e 20 27
e 20 28
e 20 29
e 20 30
e 20 31
e 20 33
e 20 34
e 20 35
e 20 38
e 20 39
e 20 40
e 20 41
e 20 42
e 20 44
e 20 45
e 20 46
e 20 50
e 20 52
e 20 56
e 20 57
e 20 61
e 20 66
e 20 70
e 20 72
e 20 74
e 20 77
e 20 78
e 20 80
e 20 85
e 20 92
e 20 99
e 20 100
e 21 22
e 21 23
e 21 24
e 21 25
e 21 26
e 21 27
e 21 29
e 21 30
e 21 31
e 21 32
e 21 33
e 21 35
e 21 36
e 21 37
e 21 40
e 21 41
e 21 43
e 21 44
e 21 46
e 21 47
e 21 48
e 21 49
e 21 51
e 21 52
e 21 53
e 21 54
e 21 55
e 21 57
e 21 59
e 21 61
e 21 63
e 21 66
e 21 67
e 21 68
e 21 70
e 21 74
e 21 76
e 21 79
e 21 80
e 21 83
e 21 88
e 21 89
e 21 93
e 21 98
e 22 23
e 22 25
e 22 26
e 22 27
e 22 28
e 22 29
e 22 30
e 22 31
e 22 33
e 22 34
e 22 35
e 22 36
e 22 37
e 22 39
e 22 40
e 22 43
e 22 44
e 22 49
e 22 51
e 22 54
e 22 55
e 22 61
e 22 62
e 22 63
e 22 65
e 22 66
e 22 73
e 22 74
e 22 77
e 22 79
e 22 81
e 22 82
e 22 87
e 22 88
e 22 93
e 22 94
e 22 97
e 22 98
e 22 100
e 23 24
e 23 27
e 23 28
e 23 29
e 23 30
e 23 32
e 23 33
e 23 34
e 23 35
e 23 36
e 23 43
e 23 45
e 23 60
e 23 64
e 23 65
e 23 66
e 23 69
e 23 72
e 23 74
e 23 75
e 23 76
e 23 79
e 23 82
e 23 83
e 23 85
e 23 86
e 23 87
e 23 95
e 24 25
e 24 26
e 24 28
e 24 29
e 24 30
e 24 32
e 24 34
e 24 35
e 24 37
e 24 39
e 24 41
e 24 42
e 24 45
e 24 48
e 24 49
e 24 51
e 24 52
e 24 55
e 24 61
e 24 62
e 24 64
e 24 66
e 24 68
e 24 69
e 24 74
e 24 78
e 24 84
e 24 85
e 24 92
e 24 93
e 24 98
e 25 26
e 25 27
e 25 31
e 25 32
e 25 35
e 25 37
e 25 40
e 25 42
e 25 43
e 25 46
e 25 47
e 25 48
e 25 49
e 25 52
e 25 53
e 25 56
e 25 64
e 25 67
e 25 69
e 25 74
e 25 75
e 25 77
e 25 82
e 25 87
e 25 90
e 25 92
e 25 95
e 25 96
e 25 97
e 26 27
e 26 29
e 26 30
e 26 31
e 26 33
e 26 38
e 26 39
e 26 40
e 26 41
e 26 42
e 26 43
e 26 45
e 26 46
e 26 47
e 26 51
e 26 52
e 26 53
e 26 56
e 26 60
e 26 63
e 26 64
e 26 68
e 26 69
e 26 70
e 26 72
e 26 73
e 26 74
e 26 75
e 26 77
e 26 78
e 26 80
e 26 82
e 26 87
e 27 31
e 27 32
e 27 34
e 27 36
e 27 37
e 27 39
e 27 44
e 27 45
e 27 47
e 27 50
e 27 56
e 27 64
e 27 66
e 27 69
e 27 74
e 27 77
e 27 83
e 27 85
e 27 88
e 27 91
e 27 96
e 28 30
e 28 32
e 28 33
e 28 35
e 28 37
e 28 42
e 28 46
e 28 50
e 28 51
e 28 58
e 28 67
e 28 68
e 28 71
e 28 72
e 28 73
e 28 80
e 28 81
e 28 88
e 28 89
e 28 95
e 29 32
e 29 33
e 29 36
e 29 37
e 29 38
e 29 39
e 29 40
e 29 41
e 29 42
e 29 49
e 29 52
e 29 54
e 29 56
e 29 58
e 29 62
e 29 65
e 29 68
e 29 70
e 29 73
e 29 77
e 29 78
e 29 81
e 29 86
e 29 87
e 29 88
e 29 90
e 29 91
e 29 97
e 30 31
e 30 32
e 30 36
e 30 37
e 30 38
e 30 41
e 30 44
e 30 45
e 30 52
e 30 53
e 30 56
e 30 59
e 30 61
e 30 63
e 30 66
e 30 68
e 30 76
e 30 77
e 30 79
e 30 87
e 30 89
e 30 96
e 30 97
e 30 98
e 31 32
e 31 36
e 31 37
e 31 40
e 31 43
e 31 59
e 31 62
e 31 64
e 31 67
e 31 70
e 31 72
e 31 78
e 31 82
e 31 83
e 31 88
e 31 91
e 31 94
e 31 95
e 31 96
e 31 99
e 32 33
e 32 34
e 32 37
e 32 38
e 32 40
e 32 42
e 32 43
e 32 44
e 32 45
e 32 46
e 32 48
e 32 49
e 32 55
e 32 60
e 32 61
e 32 64
e 32 65
e 32 66
e 32 69
e 32 70
e 32 77
e 32 78
e 32 84
e 32 86
e 32 90
e 32 92
e 32 93
e 32 95
e 32 96
e 32 97
e 33 35
e 33 38
e 33 39
e 33 41
e 33 42
e 33 43
e 33 46
e 33 48
e 33 51
e 33 52
e 33 56
e 33 57
e 33 63
e 33 64
e 33 66
e 33 69
e 33 71
e 33 75
e 33 76
e 33 79
e 33 86
e 33 88
e 33 90
e 33 92
e 33 95
e 34 35
e 34 39
e 34 42
e 34 49
e 34 53
e 34 54
e 34 55
e 34 57
e 34 58
e 34 62
e 34 67
e 34 68
e 34 69
e 34 71
e 34 72
e 34 80
e 34 81
e 34 84
e 34 85
e 34 86
e 34 89
e 34 91
e 34 94
e 35 37
e 35 38
e 35 40
e 35 41
e 35 43
e 35 47
e 35 52
e 35 53
e 35 59
e 35 60
e 35 62
e 35 65
e 35 67
e 35 70
e 35 71
e 35 73
e 35 75
e 35 76
e 35 78
e 35 87
e 35 90
e 35 92
e 35 93
e 35 98
e 35 100
e 36 37
e 36 39
e 36 40
e 36 42
e 36 44
e 36 48
e 36 50
e 36 53
e 36 54
e 36 55
e 36 58
e 36 61
e 36 72
e 36 75
e 36 77
e 36 81
e 36 82
e 36 83
e 36 88
e 36 94
e 37 38
e 37 40
e 37 45
e 37 47
e 37 57
e 37 71
e 37 79
e 37 84
e 37 86
e 38 43
e 38 45
e 38 47
e 38 55
e 38 56
e 38 63
e 38 71
e 38 83
e 38 84
e 38 89
e 38 96
e 38 98
e 39 42
e 39 44
e 39 45
e 39 49
e 39 53
e 39 57
e 39 60
e 39 63
e 39 66
e 39 75
e 39 79
e 39 82
e 39 94
e 39 97
e 40 41
e 40 43
e 40 49
e 40 50
e 40 51
e 40 55
e 40 61
e 40 63
e 40 68
e 40 70
e 40 72
e 40 73
e 40 74
e 40 88
e 40 93
e 40 96
e 41 42
e 41 44
e 41 47
e 41 48
e 41 51
e 41 54
e 41 58
e 41 59
e 41 62
e 41 66
e 41 68
e 41 72
e 41 73
e 41 77
e 41 90
e 41 92
e 41 98
e 42 44
e 42 46
e 42 48
e 42 54
e 42 55
e 42 59
e 42 62
e 42 63
e 42 79
e 42 82
e 42 83
e 42 97
e 42 99
e 42 100
e 43 46
e 43 47
e 43 48
e 43 53
e 43 58
e 43 61
e 43 62
e 43 64
e 43 65
e 43 71
e 43 72
e 43 78
e 43 87
e 43 89
e 43 94
e 43 95
e 44 45
e 44 47
e 44 50
e 44 54
e 44 59
e 44 61
e 44 74
e 44 81
e 44 85
e 44 88
e 44 97
e 45 46
e 45 49
e 45 63
e 45 65
e 45 67
e 45 91
e 45 93
e 45 94
e 46 47
e 46 50
e 46 58
e 46 62
e 46 68
e 46 78
e 46 96
e 46 99
e 47 48
e 47 55
e 47 56
e 47 66
e 47 81
e 47 83
e 47 86
e 47 87
e 47 93
e 47 99
e 48 50
e 48 51
e 48 54
e 48 55
e 48 57
e 48 60
e 48 61
e 48 64
e 48 68
e 48 70
e 48 72
e 48 73
e 48 74
e 48 76
e 48 78
e 48 81
e 48 82
e 48 86
e 48 95
e 48 97
e 48 100
e 49 53
e 49 58
e 49 60
e 49 65
e 49 69
e 49 70
e 49 71
e 49 85
e 49 89
e 49 95
e 49 96
e 49 98
e 50 52
e 50 54
e 50 56
e 50 59
e 50 66
e 50 70
e 50 78
e 50 80
e 50 82
e 50 83
e 50 85
e 50 90
e 51 67
e 51 78
e 51 87
e 51 96
e 52 53
e 52 58
e 52 69
e 52 75
e 52 80
e 52 86
e 52 88
e 52 92
e 52 100
e 53 63
e 53 65
e 53 79
e 53 91
e 54 55
e 54 64
e 54 71
e 54 77
e 55 56
e 55 60
e 55 62
e 55 73
e 55 76
e 55 81
e 55 84
e 55 90
e 56 58
e 56 59
e 56 69
e 56 70
e 56 80
e 56 81
e 56 87
e 56 93
e 56 94
e 57 59
e 57 67
e 57 68
e 57 74
e 57 86
e 57 89
e 57 92
e 58 69
e 58 72
e 58 78
e 58 84
e 58 88
e 58 91
e 58 94
e 59 64
e 59 82
e 59 89
e 59 92
e 60 65
e 60 67
e 60 77
e 60 80
e 60 85
e 60 90
e 60 94
e 61 73
e 61 77
e 61 80
e 61 81
e 61 92
e 61 94
e 61 99
e 62 64
e 62 65
e 62 71
e 62 75
e 62 76
e 62 79
e 62 80
e 62 92
e 62 94
e 63 74
e 63 78
e 63 82
e 63 89
e 64 76
e 64 85
e 65 76
e 65 91
e 65 93
e 65 99
e 66 69
e 66 80
e 66 91
e 66 92
e 66 100
e 67 74
e 67 99
e 68 70
e 68 96
e 68 97
e 68 98
e 69 71
e 69 77
e 69 88
e 69 97
e 69 99
e 70 71
e 70 81
e 70 83
e 70 91
e 71 75
e 71 85
e 71 87
e 72 75
e 72 76
e 72 82
e 72 88
e 72 90
e 73 83
e 74 75
e 74 81
e 74 89
e 75 82
e 75 83
e 75 86
e 75 91
e 75 92
e 75 95
e 75 97
e 76 87
e 76 89
e 76 90
e 77 84
e 77 86
e 77 95
e 77 97
e 78 96
e 79 86
e 79 92
e 79 98
e 79 99
e 80 90
e 80 98
e 82 85
e 82 95
e 82 99
e 83 87
e 83 98
e 84 89
e 84 90
e 84 91
e 84 93
e 84 97
e 85 98
e 85 99
e 86 96
e 87 88
e 88 89
e 88 90
e 88 100
e 89 93
e 89 99
e 90 91
e 90 94
e 91 93
e 91 100
e 93 95
e 94 99
e 94 100
